21758
1 0 1 1 1 1 1 0 1 0 1 1 0 0 0 0 0 0 1 1 1 1 0 0 1 1 0 1 1 0
18 19 2 27 2 6 21 27 18 28 4 28 10 3 28 18 3 20 27 0 18 21 5 24 10 18 27 19 4 2 19 19 4 21 27 6 20 8 24 21 18 8 6 4 8 19 3 21 19 20 24 24 24 21 8 6 11 8 18 25 4 0 18 8 3 11 5 19 28 25 18 6 19 8 5 5 20 5 8 24 10 0 8 25 4 20 6 5 27 25 28 6 25 25 2 3 11 6 0 28 28 21 25 18 4 0 4 24 27 3 19 4 27 6 11 8 28 25 0 8 20 11 28 19 4 21 2 11 19 0 28 24 25 20 5 8 3 3 28 10 11 27 11 11 25 5 24 21 27 25 24 0 10 0 8 11 2 21 3 3 3 27 10 24 5 27 5 4 3 21 5 20 6 10 4 2 0 10 4 10 5 21 2 6 11 20 28 10 0 2 2 21 6 6 25 6 25 21 10 19
